feasible solution found by trivial heuristic after 0.1 seconds, objective value 0.000000e+00
presolving:
(round 1, fast)       6811 del vars, 13348 del conss, 0 add conss, 137 chg bounds, 6400 chg sides, 0 chg coeffs, 0 upgd conss, 0 impls, 6302 clqs
(round 2, fast)       6948 del vars, 13348 del conss, 0 add conss, 137 chg bounds, 6400 chg sides, 0 chg coeffs, 0 upgd conss, 0 impls, 6302 clqs
   (0.2s) running MILP presolver
   (0.3s) MILP presolver found nothing
(round 3, exhaustive) 6948 del vars, 13348 del conss, 0 add conss, 137 chg bounds, 6400 chg sides, 0 chg coeffs, 6302 upgd conss, 0 impls, 6302 clqs
   (0.4s) probing: 51/137 (37.2%) - 0 fixings, 0 aggregations, 0 implications, 0 bound changes
   (0.4s) probing aborted: 50/50 successive totally useless probings
   (0.6s) symmetry computation started: requiring (bin +, int -, cont +), (fixed: bin -, int +, cont -)
   (0.7s) no symmetry present
presolving (4 rounds: 4 fast, 2 medium, 2 exhaustive):
 6948 deleted vars, 13348 deleted constraints, 0 added constraints, 137 tightened bounds, 0 added holes, 6400 changed sides, 0 changed coefficients
 0 implications, 6302 cliques
presolved problem has 137 variables (137 bin, 0 int, 0 impl, 0 cont) and 6302 constraints
   6302 constraints of type <setppc>
Presolving Time: 0.58

 time | node  | left  |LP iter|LP it/n|mem/heur|mdpt |vars |cons |rows |cuts |sepa|confs|strbr|  dualbound   | primalbound  |  gap   | compl. 
t 0.7s|     1 |     0 |     0 |     - | trivial|   0 | 137 |6302 |   0 |   0 |  0 |   0 |   0 | 4.177998e+08 | 4.177853e+08 |   0.00%| unknown
p 0.7s|     1 |     0 |     0 |     - |  clique|   0 | 137 |6302 |6302 |   0 |  0 |   0 |   0 | 4.177998e+08 | 4.177865e+08 |   0.00%| unknown
p 0.7s|     1 |     0 |     0 |     - |   locks|   0 | 137 |6302 |6302 |   0 |  0 |   0 |   0 | 4.177998e+08 | 4.177866e+08 |   0.00%| unknown
i 0.7s|     1 |     0 |   129 |     - |  oneopt|   0 | 137 |6302 |6302 |   0 |  0 |   0 |   0 | 4.177998e+08 | 4.177867e+08 |   0.00%| unknown
  1.2s|     1 |     0 |  1194 |     - |    81M |   0 | 137 |6302 |6302 |   0 |  0 |   0 |   0 | 4.177880e+08 | 4.177867e+08 |   0.00%| unknown
  1.4s|     1 |     0 |  1364 |     - |    82M |   0 | 137 |6302 |6304 |   2 |  1 |   0 |   0 | 4.177879e+08 | 4.177867e+08 |   0.00%| unknown
  1.6s|     1 |     0 |  1534 |     - |    84M |   0 | 137 |6302 |6305 |   3 |  2 |   0 |   0 | 4.177879e+08 | 4.177867e+08 |   0.00%| unknown
  1.8s|     1 |     0 |  1683 |     - |    86M |   0 | 137 |6302 |6306 |   4 |  3 |   0 |   0 | 4.177879e+08 | 4.177867e+08 |   0.00%| unknown
  1.9s|     1 |     0 |  1805 |     - |    87M |   0 | 137 |6302 |6307 |   5 |  4 |   0 |   0 | 4.177879e+08 | 4.177867e+08 |   0.00%| unknown
  2.0s|     1 |     0 |  1927 |     - |    89M |   0 | 137 |6302 |6308 |   6 |  5 |   0 |   0 | 4.177879e+08 | 4.177867e+08 |   0.00%| unknown
  2.1s|     1 |     0 |  2057 |     - |    91M |   0 | 137 |6302 |6309 |   7 |  6 |   0 |   0 | 4.177879e+08 | 4.177867e+08 |   0.00%| unknown
  2.2s|     1 |     0 |  2236 |     - |    91M |   0 | 137 |6302 |6310 |   8 |  7 |   0 |   0 | 4.177879e+08 | 4.177867e+08 |   0.00%| unknown
  2.3s|     1 |     0 |  2376 |     - |    93M |   0 | 137 |6302 |6311 |   9 |  8 |   0 |   0 | 4.177879e+08 | 4.177867e+08 |   0.00%| unknown
  2.4s|     1 |     0 |  2542 |     - |    94M |   0 | 137 |6302 |6312 |  10 |  9 |   0 |   0 | 4.177879e+08 | 4.177867e+08 |   0.00%| unknown
  2.6s|     1 |     0 |  2734 |     - |    96M |   0 | 137 |6302 |6314 |  12 | 10 |   0 |   0 | 4.177879e+08 | 4.177867e+08 |   0.00%| unknown
 time | node  | left  |LP iter|LP it/n|mem/heur|mdpt |vars |cons |rows |cuts |sepa|confs|strbr|  dualbound   | primalbound  |  gap   | compl. 
  2.6s|     1 |     0 |  2780 |     - |    97M |   0 | 137 |6302 |6315 |  13 | 11 |   0 |   0 | 4.177879e+08 | 4.177867e+08 |   0.00%| unknown
  2.7s|     1 |     0 |  2815 |     - |    98M |   0 | 137 |6302 |6316 |  14 | 12 |   0 |   0 | 4.177879e+08 | 4.177867e+08 |   0.00%| unknown
  2.8s|     1 |     0 |  2859 |     - |    98M |   0 | 137 |6302 |6317 |  15 | 13 |   0 |   0 | 4.177879e+08 | 4.177867e+08 |   0.00%| unknown
  2.9s|     1 |     0 |  2894 |     - |    99M |   0 | 137 |6302 |6318 |  16 | 14 |   0 |   0 | 4.177879e+08 | 4.177867e+08 |   0.00%| unknown
  2.9s|     1 |     0 |  2916 |     - |   100M |   0 | 137 |6302 |6319 |  17 | 15 |   0 |   0 | 4.177879e+08 | 4.177867e+08 |   0.00%| unknown
  3.0s|     1 |     0 |  2944 |     - |   100M |   0 | 137 |6302 |6320 |  18 | 16 |   0 |   0 | 4.177879e+08 | 4.177867e+08 |   0.00%| unknown
  3.0s|     1 |     0 |  2991 |     - |   101M |   0 | 137 |6302 |6321 |  19 | 17 |   0 |   0 | 4.177879e+08 | 4.177867e+08 |   0.00%| unknown
  3.1s|     1 |     0 |  3020 |     - |   102M |   0 | 137 |6302 |6322 |  20 | 18 |   0 |   0 | 4.177879e+08 | 4.177867e+08 |   0.00%| unknown
  3.1s|     1 |     0 |  3046 |     - |   102M |   0 | 137 |6302 |6323 |  21 | 19 |   0 |   0 | 4.177879e+08 | 4.177867e+08 |   0.00%| unknown
  3.3s|     1 |     0 |  3086 |     - |   103M |   0 | 137 |6302 |6324 |  22 | 20 |   0 |   0 | 4.177879e+08 | 4.177867e+08 |   0.00%| unknown
d 3.6s|     1 |     0 |  4160 |     - |farkasdi|   0 | 137 |6302 |6324 |   0 | 20 |   0 |   0 | 4.177879e+08 | 4.177867e+08 |   0.00%| unknown
  3.7s|     1 |     0 |  4160 |     - |   103M |   0 | 137 |6302 |6324 |  22 | 20 |   0 |   0 | 4.177879e+08 | 4.177867e+08 |   0.00%| unknown
  3.7s|     1 |     0 |  4191 |     - |   103M |   0 | 137 |6302 |6325 |  23 | 21 |   0 |   0 | 4.177879e+08 | 4.177867e+08 |   0.00%| unknown
  3.7s|     1 |     0 |  4205 |     - |   103M |   0 | 137 |6302 |6326 |  24 | 22 |   0 |   0 | 4.177879e+08 | 4.177867e+08 |   0.00%| unknown
 14.0s|     1 |     2 |  4205 |     - |   103M |   0 | 137 |6302 |6326 |  24 | 22 |   0 |  31 | 4.177879e+08 | 4.177867e+08 |   0.00%| unknown
 time | node  | left  |LP iter|LP it/n|mem/heur|mdpt |vars |cons |rows |cuts |sepa|confs|strbr|  dualbound   | primalbound  |  gap   | compl. 
*20.4s|     5 |     4 |  5431 | 607.2 |strongbr|   4 | 137 |6302 |6323 |  24 |  1 |   0 |  98 | 4.177879e+08 | 4.177868e+08 |   0.00%| unknown
*25.4s|     9 |     4 |  6240 | 404.8 |strongbr|   4 | 137 |6302 |6323 |  24 |  3 |   0 | 185 | 4.177879e+08 | 4.177868e+08 |   0.00%|  10.88%
*25.4s|     9 |     4 |  6260 | 407.2 |strongbr|   4 | 137 |6302 |6323 |  24 |  4 |   0 | 187 | 4.177879e+08 | 4.177868e+08 |   0.00%|  10.88%
*38.3s|    50 |     9 | 10074 | 144.3 |strongbr|   9 | 137 |6302 |6323 |  24 |  1 |   0 | 428 | 4.177879e+08 | 4.177869e+08 |   0.00%|  26.47%
*38.4s|    50 |     9 | 10126 | 145.4 |strongbr|   9 | 137 |6302 |6323 |  24 |  2 |   0 | 430 | 4.177879e+08 | 4.177869e+08 |   0.00%|  26.47%
 51.9s|   100 |    13 | 16693 | 138.3 |   109M |  16 | 137 |6310 |6323 |  44 |  1 |   8 | 523 | 4.177879e+08 | 4.177869e+08 |   0.00%|  38.88%
*53.7s|   109 |    11 | 17871 | 137.7 |strongbr|  16 | 137 |6302 |6323 |  44 |  1 |   8 | 533 | 4.177879e+08 | 4.177870e+08 |   0.00%|  39.73%
 59.9s|   200 |    24 | 32165 | 146.5 |   113M |  20 | 137 |6304 |6327 |  60 |  0 |  10 | 540 | 4.177877e+08 | 4.177870e+08 |   0.00%|  44.93%
 64.0s|   300 |    30 | 42124 | 130.8 |   114M |  26 | 137 |6305 |6327 |  60 |  0 |  11 | 542 | 4.177876e+08 | 4.177870e+08 |   0.00%|  46.57%
 71.2s|   400 |    32 | 50828 | 119.9 |   114M |  33 | 137 |6305 |6327 |  68 |  1 |  11 | 542 | 4.177875e+08 | 4.177870e+08 |   0.00%|  48.81%
 74.2s|   500 |    34 | 60027 | 114.3 |   118M |  33 | 137 |6305 |6328 |  85 |  1 |  11 | 542 | 4.177875e+08 | 4.177870e+08 |   0.00%|  50.21%
*75.1s|   523 |    35 | 62289 | 113.6 |    LP  |  33 | 137 |6305 |6328 |  90 |  1 |  11 | 542 | 4.177875e+08 | 4.177870e+08 |   0.00%|  50.40%
 79.1s|   600 |    42 | 70911 | 113.4 |   120M |  35 | 137 |6305 |6327 | 105 |  0 |  11 | 542 | 4.177875e+08 | 4.177870e+08 |   0.00%|  54.28%
 86.1s|   700 |    58 | 84338 | 116.4 |   123M |  38 | 137 |6305 |6328 | 150 |  6 |  11 | 552 | 4.177874e+08 | 4.177870e+08 |   0.00%|  58.06%
 94.0s|   800 |    68 | 98515 | 119.5 |   125M |  38 | 137 |6307 |6323 | 206 |  1 |  13 | 597 | 4.177873e+08 | 4.177870e+08 |   0.00%|  64.20%
 time | node  | left  |LP iter|LP it/n|mem/heur|mdpt |vars |cons |rows |cuts |sepa|confs|strbr|  dualbound   | primalbound  |  gap   | compl. 
 99.9s|   900 |    74 |109837 | 118.8 |   126M |  41 | 137 |6312 |6327 | 227 |  2 |  18 | 635 | 4.177873e+08 | 4.177870e+08 |   0.00%|  69.81%
  104s|  1000 |    76 |118616 | 115.7 |   126M |  41 | 137 |6312 |6329 | 240 |  0 |  18 | 676 | 4.177873e+08 | 4.177870e+08 |   0.00%|  76.71%
  108s|  1100 |    70 |126658 | 112.5 |   126M |  41 | 137 |6313 |6324 | 241 |  1 |  20 | 698 | 4.177872e+08 | 4.177870e+08 |   0.00%|  81.12%
  110s|  1200 |    56 |132192 | 107.7 |   127M |  41 | 137 |6315 |6323 | 247 |  0 |  22 | 720 | 4.177872e+08 | 4.177870e+08 |   0.00%|  87.29%
  112s|  1300 |    38 |137942 | 103.9 |   127M |  45 | 137 |6315 |6327 | 250 |  2 |  22 | 739 | 4.177872e+08 | 4.177870e+08 |   0.00%|  91.97%
  115s|  1400 |    20 |143260 | 100.3 |   127M |  46 | 137 |6316 |6328 | 252 |  1 |  25 | 755 | 4.177871e+08 | 4.177870e+08 |   0.00%|  96.13%

SCIP Status        : problem is solved [optimal solution found]
Solving Time (sec) : 115.55
Solving Nodes      : 1452
Primal Bound       : +4.17787034334195e+08 (305 solutions)
Dual Bound         : +4.17787034334195e+08
Gap                : 0.00 %
Solve Status: optimal
Solve Time: 115.55 seconds
